minor
S
H
72 7
72 14
36 6
38 2
39 6
41 2
43 13
72 4
41 6
43 2
44 6
46 2
48 13
72 4
47 6
48 2
50 6
51 2
53 6
72 2
55 6
72 2
53 12
72 2
50 6
72 2
48 6
47 2
48 6
50 2
51 6
50 2
48 6
47 2
48 6
72 14
36 6
38 2
39 6
41 2
43 13
72 4
41 6
43 2
44 6
46 2
48 13
72 4
47 6
48 2
50 6
51 2
53 6
72 2
55 6
72 2
53 12
72 2
50 6
72 2
48 6
47 2
48 6
50 2
51 6
50 2
48 6
47 2
48 6
E
S
H
72 7
72 14
41 6
39 2
38 6
39 2
41 13
72 14
41 6
39 2
38 6
39 2
41 13
72 14
41 6
39 2
38 6
39 2
41 13
72 14
41 6
39 2
38 6
39 2
41 13
E
S
H
72 7
72 14
108 3
137 3
188 3
108 6
72 2
228 3
202 3
189 3
202 13
72 8
109 3
161 3
202 3
109 8
135 3
109 3
240 13
72 13
137 7
202 7
188 7
163 7
137 6
72 14
108 3
137 3
188 3
108 6
72 2
228 3
202 3
189 3
202 13
72 8
109 3
161 3
202 3
109 8
135 3
109 3
240 13
72 13
137 7
202 7
188 7
163 7
137 6
72 14
108 3
137 3
188 3
108 6
72 2
228 3
202 3
189 3
202 13
72 8
109 3
161 3
202 3
109 8
135 3
109 3
240 13
72 13
137 7
202 7
188 7
163 7
137 6
72 14
108 3
137 3
188 3
108 6
72 2
228 3
202 3
189 3
202 13
72 8
109 3
161 3
202 3
109 8
135 3
109 3
240 13
72 13
137 7
202 7
188 7
163 7
137 6
E
S
L
72 7
24 6
72 8
19 6
72 8
20 6
72 8
25 6
72 8
24 6
72 8
19 6
72 8
20 6
72 8
22 6
72 8
24 6
72 8
27 6
72 8
26 6
72 8
22 6
72 8
24 6
72 8
27 6
72 8
26 6
72 8
19 6
72 8
24 6
72 8
27 6
72 8
26 6
72 8
23 6
72 8
24 6
72 12
36 4
72 4
31 4
72 4
24 4
72 9
24 6
72 8
19 6
72 8
24 6
72 8
19 7
16 6
72 2
17 6
72 8
20 6
72 8
24 6
72 8
20 7
18 6
72 2
19 6
72 8
23 6
72 8
26 6
72 8
23 7
19 6
72 2
24 6
72 2
20 6
72 2
19 6
72 2
23 6
72 2
24 6
72 2
19 6
72 2
15 6
72 2
14 6
72 2
24 6
72 8
19 6
72 8
24 6
72 8
19 7
16 6
72 2
17 6
72 8
20 6
72 8
24 6
72 8
20 7
18 6
72 2
19 6
72 8
23 6
72 8
26 6
72 8
23 7
19 6
72 2
24 6
72 2
20 6
72 2
19 6
72 2
23 6
72 2
24 6
72 2
19 6
72 2
12 6
72 8
29 6
72 8
36 6
72 8
29 6
72 8
36 6
72 8
29 6
72 8
27 6
72 8
26 6
72 8
24 6
72 8
31 8
30 3
31 3
33 10
72 2
34 8
33 3
34 3
35 10
72 2
29 6
72 8
36 6
72 8
29 6
72 8
36 6
72 8
29 6
72 8
27 6
72 8
26 6
72 8
24 6
72 8
31 8
30 3
31 3
33 10
72 2
33 8
32 3
33 3
35 10
72 2
24 6
72 8
19 6
72 8
24 6
72 8
19 7
16 6
72 2
17 6
72 8
20 6
72 8
24 6
72 8
20 7
18 6
72 2
19 6
72 8
23 6
72 8
26 6
72 8
23 7
19 6
72 2
24 6
72 2
20 6
72 2
19 6
72 2
23 6
72 2
24 6
72 2
19 6
72 2
12 6
72 8
24 6
72 8
19 6
72 8
20 6
72 8
25 6
72 8
24 6
72 8
19 6
72 8
20 6
72 8
22 6
72 8
24 6
72 8
27 6
72 8
26 6
72 8
22 6
72 8
24 6
72 8
27 6
72 8
26 6
72 8
19 6
72 8
24 6
72 8
27 6
72 8
26 6
72 8
23 6
72 8
24 6
72 12
36 4
72 4
31 4
72 4
24 4
72 9
24 6
72 8
19 6
72 8
24 6
72 8
19 7
16 6
72 2
17 6
72 8
20 6
72 8
24 6
72 8
20 7
18 6
72 2
19 6
72 8
23 6
72 8
26 6
72 8
23 7
19 6
72 2
24 6
72 2
20 6
72 2
19 6
72 2
23 6
72 2
24 6
72 2
19 6
72 2
15 6
72 2
14 6
72 2
24 6
72 8
19 6
72 8
24 6
72 8
19 7
16 6
72 2
17 6
72 8
20 6
72 8
24 6
72 8
20 7
18 6
72 2
19 6
72 8
23 6
72 8
26 6
72 8
23 7
19 6
72 2
24 6
72 2
20 6
72 2
19 6
72 2
23 6
72 2
24 6
72 2
19 6
72 2
12 6
72 8
29 6
72 8
36 6
72 8
29 6
72 8
36 6
72 8
29 6
72 8
27 6
72 8
26 6
72 8
24 6
72 8
31 8
30 3
31 3
33 10
72 2
34 8
33 3
34 3
35 10
72 2
29 6
72 8
36 6
72 8
29 6
72 8
36 6
72 8
29 6
72 8
27 6
72 8
26 6
72 8
24 6
72 8
31 8
30 3
31 3
33 10
72 2
33 8
32 3
33 3
35 10
72 2
24 6
72 8
19 6
72 8
24 6
72 8
19 7
16 6
72 2
17 6
72 8
20 6
72 8
24 6
72 8
20 7
18 6
72 2
19 6
72 8
23 6
72 8
26 6
72 8
23 7
19 6
72 2
24 6
72 2
20 6
72 2
19 6
72 2
23 6
72 2
24 6
72 2
19 6
72 2
12 6
E
S
L
72 7
12 6
72 8
7 6
72 8
8 6
72 8
13 6
72 8
12 6
72 8
7 6
72 8
8 6
72 8
10 6
72 8
12 6
72 8
15 6
72 8
14 6
72 8
10 6
72 8
12 6
72 8
15 6
72 8
14 6
72 8
7 6
72 8
12 6
72 8
15 6
72 8
14 6
72 8
11 6
72 8
12 6
72 12
24 4
72 4
19 4
72 4
12 4
72 9
12 6
72 8
7 6
72 8
12 6
72 8
7 7
4 6
72 2
5 6
72 8
8 6
72 8
12 6
72 8
8 7
6 6
72 2
7 6
72 8
11 6
72 8
14 6
72 8
11 7
7 6
72 2
12 6
72 2
8 6
72 2
7 6
72 2
11 6
72 2
12 6
72 2
7 6
72 2
3 6
72 2
2 6
72 2
12 6
72 8
7 6
72 8
12 6
72 8
7 7
4 6
72 2
5 6
72 8
8 6
72 8
12 6
72 8
8 7
6 6
72 2
7 6
72 8
11 6
72 8
14 6
72 8
11 7
7 6
72 2
12 6
72 2
8 6
72 2
7 6
72 2
11 6
72 2
12 6
72 2
7 6
72 2
0 6
72 8
17 6
72 8
24 6
72 8
17 6
72 8
24 6
72 8
17 6
72 8
15 6
72 8
14 6
72 8
12 6
72 8
19 6
72 8
21 6
72 8
22 6
72 8
23 6
72 8
17 6
72 8
24 6
72 8
17 6
72 8
24 6
72 8
17 6
72 8
15 6
72 8
14 6
72 8
12 6
72 8
19 6
72 8
17 6
72 8
15 6
72 8
14 6
72 8
12 6
72 8
7 6
72 8
12 6
72 8
7 7
4 6
72 2
5 6
72 8
8 6
72 8
12 6
72 8
8 7
6 6
72 2
7 6
72 8
11 6
72 8
14 6
72 8
11 7
7 6
72 2
12 6
72 2
8 6
72 2
7 6
72 2
11 6
72 2
12 6
72 2
7 6
72 2
0 6
72 8
12 6
72 8
7 6
72 8
8 6
72 8
13 6
72 8
12 6
72 8
7 6
72 8
8 6
72 8
10 6
72 8
12 6
72 8
15 6
72 8
14 6
72 8
10 6
72 8
12 6
72 8
15 6
72 8
14 6
72 8
7 6
72 8
12 6
72 8
15 6
72 8
14 6
72 8
11 6
72 8
12 6
72 12
24 4
72 4
19 4
72 4
12 4
72 9
12 6
72 8
7 6
72 8
12 6
72 8
7 7
4 6
72 2
5 6
72 8
8 6
72 8
12 6
72 8
8 7
6 6
72 2
7 6
72 8
11 6
72 8
14 6
72 8
11 7
7 6
72 2
12 6
72 2
8 6
72 2
7 6
72 2
11 6
72 2
12 6
72 2
7 6
72 2
3 6
72 2
2 6
72 2
12 6
72 8
7 6
72 8
12 6
72 8
7 7
4 6
72 2
5 6
72 8
8 6
72 8
12 6
72 8
8 7
6 6
72 2
7 6
72 8
11 6
72 8
14 6
72 8
11 7
7 6
72 2
12 6
72 2
8 6
72 2
7 6
72 2
11 6
72 2
12 6
72 2
7 6
72 2
0 6
72 8
17 6
72 8
24 6
72 8
17 6
72 8
24 6
72 8
17 6
72 8
15 6
72 8
14 6
72 8
12 6
72 8
19 6
72 8
21 6
72 8
22 6
72 8
23 6
72 8
17 6
72 8
24 6
72 8
17 6
72 8
24 6
72 8
17 6
72 8
15 6
72 8
14 6
72 8
12 6
72 8
19 6
72 8
17 6
72 8
15 6
72 8
14 6
72 8
12 6
72 8
7 6
72 8
12 6
72 8
7 7
4 6
72 2
5 6
72 8
8 6
72 8
12 6
72 8
8 7
6 6
72 2
7 6
72 8
11 6
72 8
14 6
72 8
11 7
7 6
72 2
12 6
72 2
8 6
72 2
7 6
72 2
11 6
72 2
12 6
72 2
7 6
72 2
0 6
E
S
H
72 7
72 14
48 6
50 2
51 6
53 2
55 13
72 4
53 6
55 2
56 6
58 2
60 13
72 4
59 6
60 2
62 6
63 2
65 7
67 7
65 12
62 7
60 6
59 2
60 6
62 2
63 6
62 2
60 6
59 2
60 10
72 14
41 6
39 2
38 6
39 2
41 6
43 2
44 6
43 2
41 6
39 2
38 6
39 2
38 6
36 2
35 6
36 2
72 14
41 6
39 2
38 6
39 2
41 6
43 2
44 6
43 2
41 6
39 2
38 6
39 2
38 6
36 2
35 6
32 2
31 14
72 2
48 6
50 2
51 6
53 2
55 13
72 4
53 6
55 2
56 6
58 2
60 13
72 4
59 6
60 2
62 6
63 2
65 7
67 7
65 12
62 7
60 6
59 2
60 6
62 2
63 6
62 2
60 6
59 2
60 10
72 14
48 6
50 2
51 6
53 2
55 13
72 4
53 6
55 2
56 6
58 2
60 13
72 4
59 6
60 2
62 6
63 2
65 7
67 7
65 12
62 7
60 6
59 2
60 6
62 2
63 6
62 2
60 6
59 2
60 10
72 14
41 6
39 2
38 6
39 2
41 6
43 2
44 6
43 2
41 6
39 2
38 6
39 2
38 6
36 2
35 6
36 2
72 14
41 6
39 2
38 6
39 2
41 6
43 2
44 6
43 2
41 6
39 2
38 6
39 2
38 6
36 2
35 6
32 2
31 14
72 2
48 6
50 2
51 6
53 2
55 13
72 4
53 6
55 2
56 6
58 2
60 13
72 4
59 6
60 2
62 6
63 2
65 7
67 7
65 12
62 7
60 6
59 2
60 6
62 2
63 6
62 2
60 6
59 2
60 10
E
S
H
72 7
72 14
36 6
38 2
39 6
41 2
43 13
72 4
41 6
43 2
44 6
46 2
48 13
72 4
47 6
48 2
50 6
51 2
53 7
55 7
53 12
50 7
48 6
47 2
48 6
50 2
51 6
50 2
48 6
47 2
48 10
72 14
53 6
51 2
50 6
51 2
53 6
55 2
56 6
55 2
53 6
51 2
50 6
51 2
50 6
48 2
47 6
48 2
72 14
53 6
51 2
50 6
51 2
53 6
55 2
56 6
55 2
53 6
51 2
50 6
51 2
50 6
48 2
47 6
44 2
43 14
72 2
36 6
38 2
39 6
41 2
43 13
72 4
41 6
43 2
44 6
46 2
48 13
72 4
47 6
48 2
50 6
51 2
53 7
55 7
53 12
50 7
48 6
47 2
48 6
50 2
51 6
50 2
48 6
47 2
48 10
72 14
36 6
38 2
39 6
41 2
43 13
72 4
41 6
43 2
44 6
46 2
48 13
72 4
47 6
48 2
50 6
51 2
53 7
55 7
53 12
50 7
48 6
47 2
48 6
50 2
51 6
50 2
48 6
47 2
48 10
72 14
53 6
51 2
50 6
51 2
53 6
55 2
56 6
55 2
53 6
51 2
50 6
51 2
50 6
48 2
47 6
48 2
72 14
53 6
51 2
50 6
51 2
53 6
55 2
56 6
55 2
53 6
51 2
50 6
51 2
50 6
48 2
47 6
44 2
43 14
72 2
36 6
38 2
39 6
41 2
43 13
72 4
41 6
43 2
44 6
46 2
48 13
72 4
47 6
48 2
50 6
51 2
53 7
55 7
53 12
50 7
48 6
47 2
48 6
50 2
51 6
50 2
48 6
47 2
48 10
E
S
L
72 7
72 7
1145 6
72 8
1145 6
72 8
1289 6
72 8
1314 6
72 8
1145 6
72 8
1145 6
72 8
1289 6
72 8
1315 6
72 8
1145 6
72 8
1628 6
72 8
1459 6
72 8
855 6
72 8
1145 6
72 8
1628 6
72 8
214 6
72 8
214 6
72 8
1145 6
72 8
1628 6
72 8
1471 6
72 8
1771 6
72 13
24 2
72 6
19 2
72 6
12 2
72 12
188 6
72 8
540 6
72 8
1145 6
72 8
804 6
72 8
829 6
72 8
829 6
72 8
829 6
72 8
541 6
72 8
856 6
72 8
856 6
72 8
856 6
72 11
188 6
72 2
200 6
72 2
1747 6
72 2
526 6
72 2
1145 6
72 2
19 6
72 2
15 6
72 2
14 6
72 8
188 6
72 8
540 6
72 8
1145 6
72 8
804 6
72 8
829 6
72 8
829 6
72 8
829 6
72 8
541 6
72 8
856 6
72 8
856 6
72 8
856 6
72 11
188 6
72 2
200 6
72 2
1747 6
72 2
526 6
72 2
1145 6
72 2
19 6
72 2
12 6
72 11
829 6
72 8
829 6
72 8
829 6
72 8
829 6
72 8
829 6
72 8
829 6
72 8
829 6
72 8
684 6
72 8
856 6
72 8
540 6
72 8
804 6
72 8
856 6
72 8
829 6
72 8
829 6
72 8
829 6
72 8
829 6
72 8
829 6
72 8
829 6
72 8
829 6
72 8
684 6
72 8
856 6
72 8
540 6
72 8
856 6
72 8
856 6
72 8
188 6
72 8
540 6
72 8
1145 6
72 8
804 6
72 8
829 6
72 8
829 6
72 8
829 6
72 8
541 6
72 8
856 6
72 8
856 6
72 8
856 6
72 11
188 6
72 2
200 6
72 2
1747 6
72 2
526 6
72 2
1145 6
72 2
19 6
72 2
12 6
72 11
1145 6
72 8
1145 6
72 8
1289 6
72 8
1314 6
72 8
1145 6
72 8
1145 6
72 8
1289 6
72 8
1315 6
72 8
1145 6
72 8
1628 6
72 8
1459 6
72 8
855 6
72 8
1145 6
72 8
1628 6
72 8
214 6
72 8
214 6
72 8
1145 6
72 8
1628 6
72 8
1471 6
72 8
1771 6
72 13
24 2
72 6
19 2
72 6
12 2
72 12
188 6
72 8
540 6
72 8
1145 6
72 8
804 6
72 8
829 6
72 8
829 6
72 8
829 6
72 8
541 6
72 8
856 6
72 8
856 6
72 8
856 6
72 11
188 6
72 2
200 6
72 2
1747 6
72 2
526 6
72 2
1145 6
72 2
19 6
72 2
15 6
72 2
14 6
72 8
188 6
72 8
540 6
72 8
1145 6
72 8
804 6
72 8
829 6
72 8
829 6
72 8
829 6
72 8
541 6
72 8
856 6
72 8
856 6
72 8
856 6
72 11
188 6
72 2
200 6
72 2
1747 6
72 2
526 6
72 2
1145 6
72 2
19 6
72 2
12 6
72 11
829 6
72 8
829 6
72 8
829 6
72 8
829 6
72 8
829 6
72 8
829 6
72 8
829 6
72 8
684 6
72 8
856 6
72 8
540 6
72 8
804 6
72 8
856 6
72 8
829 6
72 8
829 6
72 8
829 6
72 8
829 6
72 8
829 6
72 8
829 6
72 8
829 6
72 8
684 6
72 8
856 6
72 8
540 6
72 8
856 6
72 8
856 6
72 8
188 6
72 8
540 6
72 8
1145 6
72 8
804 6
72 8
829 6
72 8
829 6
72 8
829 6
72 8
541 6
72 8
856 6
72 8
856 6
72 8
856 6
72 11
188 6
72 2
200 6
72 2
1747 6
72 2
526 6
72 2
1145 6
72 2
19 6
72 2
12 6
E
S
H
72 7
72 7
1145 6
72 8
1145 6
72 8
1289 6
72 8
1314 6
72 8
1145 6
72 8
1145 6
72 8
1289 6
72 8
1315 6
72 8
1145 6
72 8
1628 6
72 8
1459 6
72 8
855 6
72 8
1145 6
72 8
1628 6
72 8
214 6
72 8
214 6
72 8
1145 6
72 8
1628 6
72 8
1471 6
72 8
1771 6
72 14
188 6
72 8
540 6
72 8
1145 6
72 8
804 6
72 8
829 6
72 8
829 6
72 8
829 6
72 8
541 6
72 8
856 6
72 8
856 6
72 8
856 6
72 14
188 6
72 8
540 6
72 8
1145 6
72 8
804 6
72 8
829 6
72 8
829 6
72 8
829 6
72 8
541 6
72 8
856 6
72 8
856 6
72 8
856 6
72 14
829 6
72 8
829 6
72 8
829 6
72 8
829 6
72 8
829 6
72 8
829 6
72 8
829 6
72 8
684 6
72 8
856 6
72 8
540 6
72 8
804 6
72 8
856 6
72 8
829 6
72 8
829 6
72 8
829 6
72 8
829 6
72 8
829 6
72 8
829 6
72 8
829 6
72 8
684 6
72 8
856 6
72 8
540 6
72 8
856 6
72 8
856 6
72 8
188 6
72 8
540 6
72 8
1145 6
72 8
804 6
72 8
829 6
72 8
829 6
72 8
829 6
72 8
541 6
72 8
856 6
72 8
856 6
72 8
856 6
72 14
1145 6
72 8
1145 6
72 8
1289 6
72 8
1314 6
72 8
1145 6
72 8
1145 6
72 8
1289 6
72 8
1315 6
72 8
1145 6
72 8
1628 6
72 8
1459 6
72 8
855 6
72 8
1145 6
72 8
1628 6
72 8
214 6
72 8
214 6
72 8
1145 6
72 8
1628 6
72 8
1471 6
72 8
1771 6
72 14
188 6
72 8
540 6
72 8
1145 6
72 8
804 6
72 8
829 6
72 8
829 6
72 8
829 6
72 8
541 6
72 8
856 6
72 8
856 6
72 8
856 6
72 14
188 6
72 8
540 6
72 8
1145 6
72 8
804 6
72 8
829 6
72 8
829 6
72 8
829 6
72 8
541 6
72 8
856 6
72 8
856 6
72 8
856 6
72 14
829 6
72 8
829 6
72 8
829 6
72 8
829 6
72 8
829 6
72 8
829 6
72 8
829 6
72 8
684 6
72 8
856 6
72 8
540 6
72 8
804 6
72 8
856 6
72 8
829 6
72 8
829 6
72 8
829 6
72 8
829 6
72 8
829 6
72 8
829 6
72 8
829 6
72 8
684 6
72 8
856 6
72 8
540 6
72 8
856 6
72 8
856 6
72 8
188 6
72 8
540 6
72 8
1145 6
72 8
804 6
72 8
829 6
72 8
829 6
72 8
829 6
72 8
541 6
72 8
856 6
72 8
856 6
72 8
856 6
E
S
H
72 7
72 14
41 0
41 0
72 2
41 0
41 0
72 0
41 0
41 0
72 1
41 0
41 0
72 1
41 0
72 0
41 0
41 0
72 2
41 0
41 0
41 0
72 2
41 0
41 0
72 0
41 0
41 0
72 1
41 0
41 0
72 1
41 0
72 0
41 0
41 0
72 2
41 0
202 0
202 0
72 2
202 0
202 0
72 0
202 0
202 0
72 1
202 0
202 0
72 1
202 0
72 0
202 0
202 0
72 2
202 0
202 0
202 0
72 2
202 0
202 0
72 0
202 0
202 0
72 1
202 0
202 0
72 1
202 0
72 0
202 0
202 0
72 2
202 0
202 0
202 0
72 2
202 0
202 0
72 0
202 0
202 0
72 1
202 0
202 0
72 1
202 0
72 0
202 0
202 0
72 2
202 0
202 0
202 0
72 2
202 0
202 0
72 0
202 0
202 0
72 1
202 0
202 0
72 1
202 0
72 0
202 0
202 0
72 2
202 0
202 0
202 0
72 2
202 0
202 0
72 0
202 0
202 0
72 1
202 0
202 0
72 1
202 0
72 0
202 0
202 0
72 2
202 0
202 0
202 0
72 2
202 0
202 0
72 0
202 0
202 0
72 1
202 0
202 0
72 1
202 0
72 0
202 0
202 0
72 2
202 0
72 14
41 0
41 0
72 2
41 0
41 0
72 0
41 0
41 0
72 1
41 0
41 0
72 1
41 0
72 0
41 0
41 0
72 2
41 0
41 0
41 0
72 2
41 0
41 0
72 0
41 0
41 0
72 1
41 0
41 0
72 1
41 0
72 0
41 0
41 0
72 2
41 0
202 0
202 0
72 2
202 0
202 0
72 0
202 0
202 0
72 1
202 0
202 0
72 1
202 0
72 0
202 0
202 0
72 2
202 0
202 0
202 0
72 2
202 0
202 0
72 0
202 0
202 0
72 1
202 0
202 0
72 1
202 0
72 0
202 0
202 0
72 2
202 0
202 0
202 0
72 2
202 0
202 0
72 0
202 0
202 0
72 1
202 0
202 0
72 1
202 0
72 0
202 0
202 0
72 2
202 0
202 0
202 0
72 2
202 0
202 0
72 0
202 0
202 0
72 1
202 0
202 0
72 1
202 0
72 0
202 0
202 0
72 2
202 0
202 0
202 0
72 2
202 0
202 0
72 0
202 0
202 0
72 1
202 0
202 0
72 1
202 0
72 0
202 0
202 0
72 2
202 0
202 0
202 0
72 2
202 0
202 0
72 0
202 0
202 0
72 1
202 0
202 0
72 1
202 0
72 0
202 0
202 0
72 2
202 0
72 14
41 0
41 0
72 2
41 0
41 0
72 0
41 0
41 0
72 1
41 0
41 0
72 1
41 0
72 0
41 0
41 0
72 2
41 0
41 0
41 0
72 2
41 0
41 0
72 0
41 0
41 0
72 1
41 0
41 0
72 1
41 0
72 0
41 0
41 0
72 2
41 0
202 0
202 0
72 2
202 0
202 0
72 0
202 0
202 0
72 1
202 0
202 0
72 1
202 0
72 0
202 0
202 0
72 2
202 0
202 0
202 0
72 2
202 0
202 0
72 0
202 0
202 0
72 1
202 0
202 0
72 1
202 0
72 0
202 0
202 0
72 2
202 0
202 0
202 0
72 2
202 0
202 0
72 0
202 0
202 0
72 1
202 0
202 0
72 1
202 0
72 0
202 0
202 0
72 2
202 0
202 0
202 0
72 2
202 0
202 0
72 0
202 0
202 0
72 1
202 0
202 0
72 1
202 0
72 0
202 0
202 0
72 2
202 0
202 0
202 0
72 2
202 0
202 0
72 0
202 0
202 0
72 1
202 0
202 0
72 1
202 0
72 0
202 0
202 0
72 2
202 0
202 0
202 0
72 2
202 0
202 0
72 0
202 0
202 0
72 1
202 0
202 0
72 1
202 0
72 0
202 0
202 0
72 2
202 0
72 14
41 0
41 0
72 2
41 0
41 0
72 0
41 0
41 0
72 1
41 0
41 0
72 1
41 0
72 0
41 0
41 0
72 2
41 0
41 0
41 0
72 2
41 0
41 0
72 0
41 0
41 0
72 1
41 0
41 0
72 1
41 0
72 0
41 0
41 0
72 2
41 0
202 0
202 0
72 2
202 0
202 0
72 0
202 0
202 0
72 1
202 0
202 0
72 1
202 0
72 0
202 0
202 0
72 2
202 0
202 0
202 0
72 2
202 0
202 0
72 0
202 0
202 0
72 1
202 0
202 0
72 1
202 0
72 0
202 0
202 0
72 2
202 0
202 0
202 0
72 2
202 0
202 0
72 0
202 0
202 0
72 1
202 0
202 0
72 1
202 0
72 0
202 0
202 0
72 2
202 0
202 0
202 0
72 2
202 0
202 0
72 0
202 0
202 0
72 1
202 0
202 0
72 1
202 0
72 0
202 0
202 0
72 2
202 0
202 0
202 0
72 2
202 0
202 0
72 0
202 0
202 0
72 1
202 0
202 0
72 1
202 0
72 0
202 0
202 0
72 2
202 0
202 0
202 0
72 2
202 0
202 0
72 0
202 0
202 0
72 1
202 0
202 0
72 1
202 0
72 0
202 0
202 0
72 2
202 0
E
S
H
72 7
72 14
41 6
39 2
38 6
39 2
41 13
72 14
41 6
39 2
38 6
39 2
41 13
72 14
41 6
39 2
38 6
39 2
41 13
72 14
41 6
39 2
38 6
39 2
41 13
E
S
H
72 7
12 6
72 14
12 3
12 6
72 14
12 3
12 6
72 14
12 3
12 6
72 14
12 3
12 6
72 14
12 3
12 6
72 14
34 6
72 2
12 6
72 2
59 6
72 8
59 6
72 8
59 6
72 8
59 3
72 3
12 3
12 6
72 2
59 6
72 8
59 6
72 8
59 6
72 8
59 3
72 3
12 3
12 6
72 2
59 6
72 8
59 6
72 8
59 6
72 8
59 3
72 3
12 3
12 6
72 14
12 6
72 2
59 6
72 8
59 6
72 8
59 6
72 8
59 3
72 3
12 3
12 6
72 2
59 6
72 8
59 6
72 8
59 6
72 8
59 3
72 3
12 3
12 6
72 2
59 6
72 8
59 6
72 8
59 6
72 8
59 3
72 3
12 3
12 6
72 14
52 3
53 3
72 3
52 6
53 2
52 4
72 4
52 4
72 4
52 4
72 4
52 4
72 4
52 4
72 9
50 6
72 8
50 6
72 8
50 6
72 7
49 3
50 6
72 8
50 6
72 8
50 6
72 8
50 6
72 7
49 3
50 6
72 8
52 3
53 3
72 3
52 6
53 2
52 4
72 4
52 4
72 4
52 4
72 4
52 4
72 4
52 4
72 9
50 6
72 8
50 6
72 8
50 6
72 7
49 3
50 6
72 8
50 6
72 8
50 6
72 8
50 6
72 7
49 3
50 6
72 8
12 6
72 2
59 6
72 8
59 6
72 8
59 6
72 8
59 3
72 3
12 3
12 6
72 2
59 6
72 8
59 6
72 8
59 6
72 8
59 3
72 3
12 3
12 6
72 2
59 6
72 8
59 6
72 8
59 6
72 8
59 3
72 3
12 3
12 6
72 14
12 6
72 14
12 3
12 6
72 14
12 3
12 6
72 14
12 3
12 6
72 14
12 3
12 6
72 14
12 3
12 6
72 14
34 6
72 2
12 6
72 2
59 6
72 8
59 6
72 8
59 6
72 8
59 3
72 3
12 3
12 6
72 2
59 6
72 8
59 6
72 8
59 6
72 8
59 3
72 3
12 3
12 6
72 2
59 6
72 8
59 6
72 8
59 6
72 8
59 3
72 3
12 3
12 6
72 14
12 6
72 2
59 6
72 8
59 6
72 8
59 6
72 8
59 3
72 3
12 3
12 6
72 2
59 6
72 8
59 6
72 8
59 6
72 8
59 3
72 3
12 3
12 6
72 2
59 6
72 8
59 6
72 8
59 6
72 8
59 3
72 3
12 3
12 6
72 14
52 3
53 3
72 3
52 6
53 2
52 4
72 4
52 4
72 4
52 4
72 4
52 4
72 4
52 4
72 9
50 6
72 8
50 6
72 8
50 6
72 7
49 3
50 6
72 8
50 6
72 8
50 6
72 8
50 6
72 7
49 3
50 6
72 8
52 3
53 3
72 3
52 6
53 2
52 4
72 4
52 4
72 4
52 4
72 4
52 4
72 4
52 4
72 9
50 6
72 8
50 6
72 8
50 6
72 7
49 3
50 6
72 8
50 6
72 8
50 6
72 8
50 6
72 7
49 3
50 6
72 8
12 6
72 2
59 6
72 8
59 6
72 8
59 6
72 8
59 3
72 3
12 3
12 6
72 2
59 6
72 8
59 6
72 8
59 6
72 8
59 3
72 3
12 3
12 6
72 2
59 6
72 8
59 6
72 8
59 6
72 8
59 3
72 3
12 3
12 6
E
X
